     Program PWSCF v.6.3 starts on 20Jun2019 at 16:20: 7

     Reading input from /home/bokhamala/FeTi/FeTi_relax.in
Warning: card  &CELL ignored
Warning: card  CELL_FACTOR = 10 ignored
Warning: card  CELL_DYNAMICS='DAMP-W', ignored
Warning: card  CELL_DOFREE = 'VOLUME' ignored
Warning: card  / ignored

     Current dimensions of program PWSCF are:
     Max number of different atomic species (ntypx) = 10
     Max number of k-points (npk) =  40000
     Max angular momentum in pseudopotentials (lmaxx) =  3
               file Fe.pz-nd-rrkjus.UPF: wavefunction(s)  4S renormalized

     Subspace diagonalization in iterative solution of the eigenvalue problem:
     a serial algorithm will be used

     bravais-lattice index     =            1
     lattice parameter (alat)  =       5.6000  a.u.
     unit-cell volume          =     175.6160 (a.u.)^3
     number of atoms/cell      =            2
     number of atomic types    =            2
     number of electrons       =        19.50
     number of Kohn-Sham states=           14
     kinetic-energy cutoff     =      50.0000  Ry
     charge density cutoff     =     400.0000  Ry
     convergence threshold     =      1.0E-06
     mixing beta               =       0.7000
     number of iterations used =            8  plain     mixing
     Exchange-correlation      = SLA PZ NOGX NOGC ( 1  1  0  0 0 0)
     nstep                     =           50

     celldm(1)=   5.600000  celldm(2)=   0.000000  celldm(3)=   0.000000
     celldm(4)=   0.000000  celldm(5)=   0.000000  celldm(6)=   0.000000

     crystal axes: (cart. coord. in units of alat)
               a(1) = (   1.000000   0.000000   0.000000 )
               a(2) = (   0.000000   1.000000   0.000000 )
               a(3) = (   0.000000   0.000000   1.000000 )

     reciprocal axes: (cart. coord. in units 2 pi/alat)
               b(1) = (  1.000000  0.000000  0.000000 )
               b(2) = (  0.000000  1.000000  0.000000 )
               b(3) = (  0.000000  0.000000  1.000000 )

     PseudoPot. # 1 for Fe read from file:
     /shared/tools/qe/qe-6.3/pseudo/Fe.pz-nd-rrkjus.UPF
     MD5 check sum: b5eb2b1fd79b39c9eac5f7a31bc313a7
     Pseudo is Ultrasoft + core correction, Zval =  8.0
     Generated by new atomic code, or converted to UPF format
     Using radial grid of  957 points,  6 beta functions with:
                l(1) =   0
                l(2) =   0
                l(3) =   1
                l(4) =   1
                l(5) =   2
                l(6) =   2
     Q(r) pseudized with 0 coefficients

     PseudoPot. # 2 for Ti read from file:
     /shared/tools/qe/qe-6.3/pseudo/Ti.pz-sp-van_ak.UPF
     MD5 check sum: 93c5ef60b250b0ab110b997ad8a4342c
     Pseudo is Ultrasoft, Zval = 12.0
     Generated by new atomic code, or converted to UPF format
     Using radial grid of  851 points,  6 beta functions with:
                l(1) =   0
                l(2) =   0
                l(3) =   1
                l(4) =   1
                l(5) =   2
                l(6) =   2
     Q(r) pseudized with  8 coefficients,  rinner =    1.000   1.000   1.000
                                                       1.000   1.000

     atomic species   valence    mass     pseudopotential
        Fe             8.00    55.84500     Fe( 1.00)
        Ti            12.00    47.86700     Ti( 1.00)

     48 Sym. Ops., with inversion, found

                                    s                        frac. trans.

      isym =  1     identity

 cryst.   s( 1) = (     1          0          0      )
                  (     0          1          0      )
                  (     0          0          1      )

 cart.    s( 1) = (  1.0000000  0.0000000  0.0000000 )
                  (  0.0000000  1.0000000  0.0000000 )
                  (  0.0000000  0.0000000  1.0000000 )

      isym =  2     180 deg rotation - cart. axis [0,0,1]

[...]

 cryst.   s( 9) = (     0          0          1      )
                  (     0         -1          0      )
                  (     1          0          0      )

 cart.    s( 9) = (  0.0000000  0.0000000  1.0000000 )
                  (  0.0000000 -1.0000000  0.0000000 )
                  (  1.0000000  0.0000000  0.0000000 )

[...]

 cryst.   s(10) = (     0          0         -1      )
                  (     0         -1          0      )
                  (    -1          0          0      )

 cart.    s(10) = (  0.0000000  0.0000000 -1.0000000 )
                  (  0.0000000 -1.0000000  0.0000000 )
                  ( -1.0000000  0.0000000  0.0000000 )

[...]

      isym = 24     120 deg rotation - cart. axis [-1,-1,1]

[...]

      isym = 25     inversion

[...]

      isym = 26     inv. 180 deg rotation - cart. axis [0,0,1]

[...]

      isym = 48     inv. 120 deg rotation - cart. axis [-1,-1,1]

 cryst.   s(48) = (     0         -1          0      )
                  (     0          0          1      )
                  (     1          0          0      )

 cart.    s(48) = (  0.0000000  0.0000000  1.0000000 )
                  ( -1.0000000  0.0000000  0.0000000 )
                  (  0.0000000  1.0000000  0.0000000 )

     point group O_h (m-3m)
     there are 10 classes
     the character table:

       E     8C3   3C2   6C4   6C2'  i     8S6   3s_h  6S4   6s_d
A_1g   1.00  1.00  1.00  1.00  1.00  1.00  1.00  1.00  1.00  1.00
A_2g   1.00  1.00  1.00 -1.00 -1.00  1.00  1.00  1.00 -1.00 -1.00
E_g    2.00 -1.00  2.00  0.00  0.00  2.00 -1.00  2.00  0.00  0.00
T_1g   3.00  0.00 -1.00  1.00 -1.00  3.00  0.00 -1.00  1.00 -1.00
T_2g   3.00  0.00 -1.00 -1.00  1.00  3.00  0.00 -1.00 -1.00  1.00
A_1u   1.00  1.00  1.00  1.00  1.00 -1.00 -1.00 -1.00 -1.00 -1.00
A_2u   1.00  1.00  1.00 -1.00 -1.00 -1.00 -1.00 -1.00  1.00  1.00
E_u    2.00 -1.00  2.00  0.00  0.00 -2.00  1.00 -2.00  0.00  0.00
T_1u   3.00  0.00 -1.00  1.00 -1.00 -3.00  0.00  1.00 -1.00  1.00
T_2u   3.00  0.00 -1.00 -1.00  1.00 -3.00  0.00  1.00  1.00 -1.00

     the symmetry operations in each class and the name of the first element:

     E        1
          identity
     8C3     17   19   20   18   24   21   22   23
          120 deg rotation - cart. axis [-1,-1,-1]
     3C2      2    4    3
          180 deg rotation - cart. axis [0,0,1]
     6C4      7    8   15   16   12   11
           90 deg rotation - cart. axis [0,0,-1]
     6C2'     5    6   14   13   10    9
          180 deg rotation - cart. axis [1,1,0]
     i       25
          inversion
     8S6     41   43   44   42   48   45   46   47
          inv. 120 deg rotation - cart. axis [-1,-1,-1]
     3s_h    26   28   27
          inv. 180 deg rotation - cart. axis [0,0,1]
     6S4     31   32   39   40   36   35
          inv.  90 deg rotation - cart. axis [0,0,-1]
     6s_d    29   30   38   37   34   33
          inv. 180 deg rotation - cart. axis [1,1,0]

   Cartesian axes

     site n.     atom                  positions (alat units)
         1           Fe  tau(   1) = (   0.0000000   0.0000000   0.0000000  )
         2           Ti  tau(   2) = (   0.5000000   0.5000000   0.5000000  )

   Crystallographic axes

     site n.     atom                  positions (cryst. coord.)
         1           Fe  tau(   1) = (  0.0000000  0.0000000  0.0000000  )
         2           Ti  tau(   2) = (  0.5000000  0.5000000  0.5000000  )

     number of k points=   120  Fermi-Dirac smearing, width (Ry)=  0.0100
                       cart. coord. in units 2pi/alat
        k(    1) = (   0.0312500   0.0312500   0.0312500), wk =   0.0039062
        k(    2) = (   0.0312500   0.0312500   0.0937500), wk =   0.0117188
        k(    3) = (   0.0312500   0.0312500   0.1562500), wk =   0.0117188
        k(    4) = (   0.0312500   0.0312500   0.2187500), wk =   0.0117188
        k(    5) = (   0.0312500   0.0312500   0.2812500), wk =   0.0117188
        k(    6) = (   0.0312500   0.0312500   0.3437500), wk =   0.0117188
        k(    7) = (   0.0312500   0.0312500   0.4062500), wk =   0.0117188
        k(    8) = (   0.0312500   0.0312500   0.4687500), wk =   0.0117188
        k(    9) = (   0.0312500   0.0937500   0.0937500), wk =   0.0117188
        k(   10) = (   0.0312500   0.0937500   0.1562500), wk =   0.0234375
        k(   11) = (   0.0312500   0.0937500   0.2187500), wk =   0.0234375
        k(   12) = (   0.0312500   0.0937500   0.2812500), wk =   0.0234375
        k(   13) = (   0.0312500   0.0937500   0.3437500), wk =   0.0234375
        k(   14) = (   0.0312500   0.0937500   0.4062500), wk =   0.0234375
        k(   15) = (   0.0312500   0.0937500   0.4687500), wk =   0.0234375
        k(   16) = (   0.0312500   0.1562500   0.1562500), wk =   0.0117188
        k(   17) = (   0.0312500   0.1562500   0.2187500), wk =   0.0234375
        k(   18) = (   0.0312500   0.1562500   0.2812500), wk =   0.0234375
        k(   19) = (   0.0312500   0.1562500   0.3437500), wk =   0.0234375
        k(   20) = (   0.0312500   0.1562500   0.4062500), wk =   0.0234375
        k(   21) = (   0.0312500   0.1562500   0.4687500), wk =   0.0234375
        k(   22) = (   0.0312500   0.2187500   0.2187500), wk =   0.0117188
        k(   23) = (   0.0312500   0.2187500   0.2812500), wk =   0.0234375
        k(   24) = (   0.0312500   0.2187500   0.3437500), wk =   0.0234375
        k(   25) = (   0.0312500   0.2187500   0.4062500), wk =   0.0234375
        k(   26) = (   0.0312500   0.2187500   0.4687500), wk =   0.0234375
        k(   27) = (   0.0312500   0.2812500   0.2812500), wk =   0.0117188
        k(   28) = (   0.0312500   0.2812500   0.3437500), wk =   0.0234375
        k(   29) = (   0.0312500   0.2812500   0.4062500), wk =   0.0234375
        k(   30) = (   0.0312500   0.2812500   0.4687500), wk =   0.0234375
        k(   31) = (   0.0312500   0.3437500   0.3437500), wk =   0.0117188
        k(   32) = (   0.0312500   0.3437500   0.4062500), wk =   0.0234375
        k(   33) = (   0.0312500   0.3437500   0.4687500), wk =   0.0234375
        k(   34) = (   0.0312500   0.4062500   0.4062500), wk =   0.0117188
        k(   35) = (   0.0312500   0.4062500   0.4687500), wk =   0.0234375
        k(   36) = (   0.0312500   0.4687500   0.4687500), wk =   0.0117188
        k(   37) = (   0.0937500   0.0937500   0.0937500), wk =   0.0039062
        k(   38) = (   0.0937500   0.0937500   0.1562500), wk =   0.0117188
        k(   39) = (   0.0937500   0.0937500   0.2187500), wk =   0.0117188
        k(   40) = (   0.0937500   0.0937500   0.2812500), wk =   0.0117188
        k(   41) = (   0.0937500   0.0937500   0.3437500), wk =   0.0117188
        k(   42) = (   0.0937500   0.0937500   0.4062500), wk =   0.0117188
        k(   43) = (   0.0937500   0.0937500   0.4687500), wk =   0.0117188
        k(   44) = (   0.0937500   0.1562500   0.1562500), wk =   0.0117188
        k(   45) = (   0.0937500   0.1562500   0.2187500), wk =   0.0234375
        k(   46) = (   0.0937500   0.1562500   0.2812500), wk =   0.0234375
        k(   47) = (   0.0937500   0.1562500   0.3437500), wk =   0.0234375
        k(   48) = (   0.0937500   0.1562500   0.4062500), wk =   0.0234375
        k(   49) = (   0.0937500   0.1562500   0.4687500), wk =   0.0234375
        k(   50) = (   0.0937500   0.2187500   0.2187500), wk =   0.0117188
        k(   51) = (   0.0937500   0.2187500   0.2812500), wk =   0.0234375
        k(   52) = (   0.0937500   0.2187500   0.3437500), wk =   0.0234375
        k(   53) = (   0.0937500   0.2187500   0.4062500), wk =   0.0234375
        k(   54) = (   0.0937500   0.2187500   0.4687500), wk =   0.0234375
        k(   55) = (   0.0937500   0.2812500   0.2812500), wk =   0.0117188
        k(   56) = (   0.0937500   0.2812500   0.3437500), wk =   0.0234375
        k(   57) = (   0.0937500   0.2812500   0.4062500), wk =   0.0234375
        k(   58) = (   0.0937500   0.2812500   0.4687500), wk =   0.0234375
        k(   59) = (   0.0937500   0.3437500   0.3437500), wk =   0.0117188
        k(   60) = (   0.0937500   0.3437500   0.4062500), wk =   0.0234375
[...]
        k(  106) = (   0.2812500   0.3437500   0.4062500), wk =   0.0234375
        k(  107) = (   0.2812500   0.3437500   0.4687500), wk =   0.0234375
        k(  108) = (   0.2812500   0.4062500   0.4062500), wk =   0.0117188
        k(  109) = (   0.2812500   0.4062500   0.4687500), wk =   0.0234375
        k(  110) = (   0.2812500   0.4687500   0.4687500), wk =   0.0117188
        k(  111) = (   0.3437500   0.3437500   0.3437500), wk =   0.0039062
        k(  112) = (   0.3437500   0.3437500   0.4062500), wk =   0.0117188
        k(  113) = (   0.3437500   0.3437500   0.4687500), wk =   0.0117188
        k(  114) = (   0.3437500   0.4062500   0.4062500), wk =   0.0117188
        k(  115) = (   0.3437500   0.4062500   0.4687500), wk =   0.0234375
        k(  116) = (   0.3437500   0.4687500   0.4687500), wk =   0.0117188
        k(  117) = (   0.4062500   0.4062500   0.4062500), wk =   0.0039062
        k(  118) = (   0.4062500   0.4062500   0.4687500), wk =   0.0117188
        k(  119) = (   0.4062500   0.4687500   0.4687500), wk =   0.0117188
        k(  120) = (   0.4687500   0.4687500   0.4687500), wk =   0.0039062

                       cryst. coord.
        k(    1) = (   0.0312500   0.0312500   0.0312500), wk =   0.0039062
        k(    2) = (   0.0312500   0.0312500   0.0937500), wk =   0.0117188
        k(    3) = (   0.0312500   0.0312500   0.1562500), wk =   0.0117188
        k(    4) = (   0.0312500   0.0312500   0.2187500), wk =   0.0117188
        k(    5) = (   0.0312500   0.0312500   0.2812500), wk =   0.0117188
        k(    6) = (   0.0312500   0.0312500   0.3437500), wk =   0.0117188
        k(    7) = (   0.0312500   0.0312500   0.4062500), wk =   0.0117188
        k(    8) = (   0.0312500   0.0312500   0.4687500), wk =   0.0117188
        k(    9) = (   0.0312500   0.0937500   0.0937500), wk =   0.0117188
        k(   10) = (   0.0312500   0.0937500   0.1562500), wk =   0.0234375
        k(   11) = (   0.0312500   0.0937500   0.2187500), wk =   0.0234375
        k(   12) = (   0.0312500   0.0937500   0.2812500), wk =   0.0234375
        k(   13) = (   0.0312500   0.0937500   0.3437500), wk =   0.0234375
        k(   14) = (   0.0312500   0.0937500   0.4062500), wk =   0.0234375
        k(   15) = (   0.0312500   0.0937500   0.4687500), wk =   0.0234375
        k(   16) = (   0.0312500   0.1562500   0.1562500), wk =   0.0117188
        k(   17) = (   0.0312500   0.1562500   0.2187500), wk =   0.0234375
        k(   18) = (   0.0312500   0.1562500   0.2812500), wk =   0.0234375
        k(   19) = (   0.0312500   0.1562500   0.3437500), wk =   0.0234375
        k(   20) = (   0.0312500   0.1562500   0.4062500), wk =   0.0234375
        k(   21) = (   0.0312500   0.1562500   0.4687500), wk =   0.0234375
        k(   22) = (   0.0312500   0.2187500   0.2187500), wk =   0.0117188
        k(   23) = (   0.0312500   0.2187500   0.2812500), wk =   0.0234375
        k(   24) = (   0.0312500   0.2187500   0.3437500), wk =   0.0234375
        k(   25) = (   0.0312500   0.2187500   0.4062500), wk =   0.0234375
        k(   26) = (   0.0312500   0.2187500   0.4687500), wk =   0.0234375
        k(   27) = (   0.0312500   0.2812500   0.2812500), wk =   0.0117188
        k(   28) = (   0.0312500   0.2812500   0.3437500), wk =   0.0234375
        k(   29) = (   0.0312500   0.2812500   0.4062500), wk =   0.0234375
        k(   30) = (   0.0312500   0.2812500   0.4687500), wk =   0.0234375
        k(   31) = (   0.0312500   0.3437500   0.3437500), wk =   0.0117188
        k(   32) = (   0.0312500   0.3437500   0.4062500), wk =   0.0234375
        k(   33) = (   0.0312500   0.3437500   0.4687500), wk =   0.0234375
        k(   34) = (   0.0312500   0.4062500   0.4062500), wk =   0.0117188
        k(   35) = (   0.0312500   0.4062500   0.4687500), wk =   0.0234375
        k(   36) = (   0.0312500   0.4687500   0.4687500), wk =   0.0117188
        k(   37) = (   0.0937500   0.0937500   0.0937500), wk =   0.0039062
        k(   38) = (   0.0937500   0.0937500   0.1562500), wk =   0.0117188
        k(   39) = (   0.0937500   0.0937500   0.2187500), wk =   0.0117188
        k(   40) = (   0.0937500   0.0937500   0.2812500), wk =   0.0117188
        k(   41) = (   0.0937500   0.0937500   0.3437500), wk =   0.0117188
        k(   42) = (   0.0937500   0.0937500   0.4062500), wk =   0.0117188
        k(   43) = (   0.0937500   0.0937500   0.4687500), wk =   0.0117188
        k(   44) = (   0.0937500   0.1562500   0.1562500), wk =   0.0117188
        k(   45) = (   0.0937500   0.1562500   0.2187500), wk =   0.0234375
        k(   46) = (   0.0937500   0.1562500   0.2812500), wk =   0.0234375
        k(   47) = (   0.0937500   0.1562500   0.3437500), wk =   0.0234375
        k(   48) = (   0.0937500   0.1562500   0.4062500), wk =   0.0234375
        k(   49) = (   0.0937500   0.1562500   0.4687500), wk =   0.0234375
        k(   50) = (   0.0937500   0.2187500   0.2187500), wk =   0.0117188
        k(   51) = (   0.0937500   0.2187500   0.2812500), wk =   0.0234375
        k(   52) = (   0.0937500   0.2187500   0.3437500), wk =   0.0234375
        k(   53) = (   0.0937500   0.2187500   0.4062500), wk =   0.0234375
        k(   54) = (   0.0937500   0.2187500   0.4687500), wk =   0.0234375
        k(   55) = (   0.0937500   0.2812500   0.2812500), wk =   0.0117188
        k(   56) = (   0.0937500   0.2812500   0.3437500), wk =   0.0234375
        k(   57) = (   0.0937500   0.2812500   0.4062500), wk =   0.0234375
        k(   58) = (   0.0937500   0.2812500   0.4687500), wk =   0.0234375
        k(   59) = (   0.0937500   0.3437500   0.3437500), wk =   0.0117188
        k(   60) = (   0.0937500   0.3437500   0.4062500), wk =   0.0234375
[...]
        k(  106) = (   0.2812500   0.3437500   0.4062500), wk =   0.0234375
        k(  107) = (   0.2812500   0.3437500   0.4687500), wk =   0.0234375
        k(  108) = (   0.2812500   0.4062500   0.4062500), wk =   0.0117188
        k(  109) = (   0.2812500   0.4062500   0.4687500), wk =   0.0234375
        k(  110) = (   0.2812500   0.4687500   0.4687500), wk =   0.0117188
        k(  111) = (   0.3437500   0.3437500   0.3437500), wk =   0.0039062
        k(  112) = (   0.3437500   0.3437500   0.4062500), wk =   0.0117188
        k(  113) = (   0.3437500   0.3437500   0.4687500), wk =   0.0117188
        k(  114) = (   0.3437500   0.4062500   0.4062500), wk =   0.0117188
        k(  115) = (   0.3437500   0.4062500   0.4687500), wk =   0.0234375
        k(  116) = (   0.3437500   0.4687500   0.4687500), wk =   0.0117188
        k(  117) = (   0.4062500   0.4062500   0.4062500), wk =   0.0039062
        k(  118) = (   0.4062500   0.4062500   0.4687500), wk =   0.0117188
        k(  119) = (   0.4062500   0.4687500   0.4687500), wk =   0.0117188
        k(  120) = (   0.4687500   0.4687500   0.4687500), wk =   0.0039062

     Check: negative/imaginary core charge=   -0.000012    0.000000

     Initial potential from superposition of free atoms

     starting charge   18.99949, renormalised to   19.50000
     Starting wfcs are   16 randomized atomic wfcs

     Self-consistent Calculation

     iteration #  1     ecut=    50.00 Ry     beta= 0.70
     CG style diagonalization
     ethr =  1.00E-02,  avg # of iterations =  2.8

     total energy              =    -160.20874937 Ry
     Harris-Foulkes estimate   =    -173.75899553 Ry
     estimated scf accuracy    <      15.85018306 Ry

     iteration #  2     ecut=    50.00 Ry     beta= 0.70
     CG style diagonalization
     c_bands:  1 eigenvalues not converged
     c_bands:  1 eigenvalues not converged
     c_bands:  1 eigenvalues not converged
     c_bands:  1 eigenvalues not converged
     c_bands:  1 eigenvalues not converged
     c_bands:  1 eigenvalues not converged
     c_bands:  1 eigenvalues not converged
     c_bands:  1 eigenvalues not converged
     c_bands:  1 eigenvalues not converged
     c_bands:  1 eigenvalues not converged
     c_bands:  1 eigenvalues not converged
     c_bands:  1 eigenvalues not converged
     c_bands:  1 eigenvalues not converged
     ethr =  1.00E-02,  avg # of iterations =  8.2

[...]

     iteration # 37     ecut=    50.00 Ry     beta= 0.70
     CG style diagonalization
     c_bands:  1 eigenvalues not converged
     ethr =  3.04E-07,  avg # of iterations =  3.2

[...]

     total energy              =    -172.79626673 Ry
     Harris-Foulkes estimate   =    -172.79626753 Ry
     estimated scf accuracy    <       0.00000392 Ry

     iteration # 41     ecut=    50.00 Ry     beta= 0.70
     CG style diagonalization
     ethr =  2.01E-08,  avg # of iterations =  3.1

     End of self-consistent calculation

          k = 0.0312 0.0312 0.0312 (  1027 PWs)   bands (ev):

   -41.7210 -18.1144 -18.1135 -18.1135   7.6511  11.0879  11.0879  13.6862
    13.6862  13.7269  15.8767  15.8767  17.6706  17.7584

     occupation numbers
     1.0000   1.0000   1.0000   1.0000   1.0000   1.0000   1.0000   0.9624
     0.9624   0.9499   0.0000   0.0000   0.0000   0.0000

[...]

          k = 0.4688 0.4688 0.4688 (  1064 PWs)   bands (ev):

   -41.6206 -18.3565 -18.3565 -18.3565  12.5633  12.6337  12.6337  12.9895
    12.9895  13.0115  14.6734  14.6734  18.0252  18.0252

     occupation numbers
     1.0000   1.0000   1.0000   1.0000   1.0000   1.0000   1.0000   0.9998
     0.9998   0.9997   0.0177   0.0177   0.0000   0.0000

     the Fermi energy is    14.1273 ev

!    total energy              =    -172.79626727 Ry
     Harris-Foulkes estimate   =    -172.79626733 Ry
     estimated scf accuracy    <       0.00000007 Ry

     The total energy is the sum of the following terms:

     one-electron contribution =     -28.76102736 Ry
     hartree contribution      =      28.52872828 Ry
     xc contribution           =     -39.67629655 Ry
     ewald contribution        =    -132.88028250 Ry
     smearing contrib. (-TS)   =      -0.00738914 Ry

     convergence has been achieved in  41 iterations

     Forces acting on atoms (cartesian axes, Ry/au):

     atom    1 type  1   force =     0.00000000    0.00000000    0.00000000
     atom    2 type  2   force =     0.00000000    0.00000000    0.00000000
     The non-local contrib.  to forces
     atom    1 type  1   force =     0.00000000    0.00000000    0.00000000
     atom    2 type  2   force =     0.00000000    0.00000000    0.00000000
     The ionic contribution  to forces
     atom    1 type  1   force =    -0.00000000   -0.00000000   -0.00000000
     atom    2 type  2   force =     0.00000000    0.00000000    0.00000000
     The local contribution  to forces
     atom    1 type  1   force =     0.00000000    0.00000000   -0.00000000
     atom    2 type  2   force =     0.00000000    0.00000000    0.00000000
     The core correction contribution to forces
     atom    1 type  1   force =     0.00000000   -0.00000000    0.00000000
     atom    2 type  2   force =     0.00000000    0.00000000    0.00000000
     The Hubbard contrib.    to forces
     atom    1 type  1   force =     0.00000000    0.00000000    0.00000000
     atom    2 type  2   force =     0.00000000    0.00000000    0.00000000
     The SCF correction term to forces
     atom    1 type  1   force =     0.00000000   -0.00000000    0.00000000
     atom    2 type  2   force =     0.00000000    0.00000000   -0.00000000

     Total force =     0.000000     Total SCF correction =     0.000000

     BFGS Geometry Optimization

     bfgs converged in   1 scf cycles and   0 bfgs steps
     (criteria: energy <  1.0E-06 Ry, force <  1.0E-05 Ry/Bohr)

     End of BFGS Geometry Optimization

     Final energy   =    -172.7962672705 Ry
Begin final coordinates

ATOMIC_POSITIONS (alat)
Fe       0.000000000   0.000000000   0.000000000
Ti       0.500000000   0.500000000   0.500000000
End final coordinates

     Writing output data file pwscf.save/

     General routines

     Parallel routines

   This run was terminated on:  16:24:55  20Jun2019

   JOB DONE.